0 4115
2401 3987
4802 3869
7203 3772
9604 3676
12005 3596
14406 3528
16807 3466
19208 3409
21609 3368
24010 3333
26411 3303
28812 3279
31213 3255
33614 3232
36015 3217
38416 3205
40817 3182
43218 3178
45619 3150
48020 3143
